CMPL model generation - running

CMPL version: 1.11.0
Authors: Thomas Schleiff, Mike Steglich
Distributed under the GPLv3 

create model instance ...
write model instance ...
CMPL model generation - finished

Solver - running


Welcome to IBM(R) ILOG(R) CPLEX(R) Interactive Optimizer 12.7.1.0
  with Simplex, Mixed Integer & Barrier Optimizers
5725-A06 5725-A29 5724-Y48 5724-Y49 5724-Y54 5724-Y55 5655-Y21
Copyright IBM Corp. 1988, 2017.  All Rights Reserved.

Type 'help' for a list of available commands.
Type 'help' followed by a command name for more
information on commands.

CPLEX> Specified objective sense: MINIMIZE
Selected objective  name:  line[1]
Selected RHS        name:  RHS
Selected bound      name:  BOUND
Problem '/tmp/cmpl.T24627.mps' read.
Read time = 0.05 sec. (8.19 ticks)
CPLEX> CPXPARAM_Read_APIEncoding                        "UTF-8"
Tried aggregator 3 times.
MIP Presolve eliminated 19031 rows and 30297 columns.
MIP Presolve modified 340 coefficients.
Aggregator did 787 substitutions.
Reduced MIP has 2537 rows, 3509 columns, and 10229 nonzeros.
Reduced MIP has 3341 binaries, 0 generals, 0 SOSs, and 0 indicators.
Presolve time = 0.05 sec. (40.94 ticks)
Found incumbent of value 1510.303766 after 0.09 sec. (66.53 ticks)
Probing fixed 23 vars, tightened 0 bounds.
Probing time = 0.01 sec. (4.66 ticks)
Tried aggregator 1 time.
MIP Presolve eliminated 0 rows and 23 columns.
MIP Presolve modified 148 coefficients.
Reduced MIP has 2537 rows, 3486 columns, and 10183 nonzeros.
Reduced MIP has 3486 binaries, 0 generals, 0 SOSs, and 0 indicators.
Presolve time = 0.01 sec. (8.73 ticks)
Probing time = 0.01 sec. (2.70 ticks)
Clique table members: 6333.
MIP emphasis: balance optimality and feasibility.
MIP search method: dynamic search.
Parallel mode: none, using 1 thread.
Root relaxation solution time = 0.01 sec. (8.27 ticks)

        Nodes                                         Cuts/
   Node  Left     Objective  IInf  Best Integer    Best Bound    ItCnt     Gap

*     0+    0                         1510.3038      -10.0659           100.67%
*     0     0      integral     0      521.5230      521.5230      408    0.00%
Elapsed time = 0.15 sec. (98.91 ticks, tree = 0.00 MB, solutions = 2)

Root node processing (before b&c):
  Real time             =    0.15 sec. (100.16 ticks)
Sequential b&c:
  Real time             =    0.00 sec. (0.00 ticks)
                          ------------
Total (root+branch&cut) =    0.15 sec. (100.16 ticks)

Solution pool: 2 solutions saved.

MIP - Integer optimal solution:  Objective =  5.2152301000e+02
Solution time =    0.15 sec.  Iterations = 408  Nodes = 0
Deterministic time = 100.25 ticks  (658.91 ticks/sec)

CPLEX> Incumbent solution written to file '/tmp/cmpl.T24627.gsol'.
CPLEX> 
CMPL: Time used for model generation: 1 seconds
CMPL: Time used for solving the model: 0 seconds


Solution written to ASCII file: results/output_generated_conf_0.8/2016-06-06-4/fair-nonlinear.sol

Solver - finished
